Problem:    
Rows:       256
Columns:    89 (72 integer, 72 binary)
Non-zeros:  960
Status:     INTEGER OPTIMAL
Objective:  value = 87.530477 (MINimum)

   No.   Row name        Activity     Lower bound   Upper bound
------ ------------    ------------- ------------- -------------
     1 r.5                   87.5305             0               
     2 r.6                   30.1244      -972.075               
     3 r.7                   1087.53             0               
     4 r.8                  -969.876      -988.236               
     5 r.9                   1087.53             0               
     6 r.10                 -933.474      -969.277               
     7 r.11                  87.5305             0               
     8 r.12                 -981.652      -987.786               
     9 r.13                  87.5305             0               
    10 r.14                  68.1732      -950.645               
    11 r.15                  1087.53             0               
    12 r.16                 -931.827      -981.259               
    13 r.17                  1087.53             0               
    14 r.18                 -967.493      -974.078               
    15 r.19                  87.5305             0               
    16 r.20                 -979.552      -985.686               
    17 r.21                  87.5305             0               
    18 r.22                  30.1244      -975.913               
    19 r.23                  1087.53             0               
    20 r.24                  -981.64      -987.773               
    21 r.25                  1087.53             0               
    22 r.26                 -998.809      -998.809               
    23 r.27                  87.5305             0               
    24 r.28                  10.6317      -991.936               
    25 r.29                  87.5305             0               
    26 r.30                  87.5305      -940.001               
    27 r.31                  1087.53             0               
    28 r.32                 -950.568      -980.692               
    29 r.33                  87.5305             0               
    30 r.34                  87.5305      -939.758               
    31 r.35                  1087.53             0               
    32 r.36                  -912.47      -980.643               
    33 r.37                        1             1             = 
    34 r.38                        1             1             = 
    35 r.39                        1             1             = 
    36 r.40                        1             1             = 
    37 r.41                        1             1             = 
    38 r.42                        1             1             = 
    39 r.43                        1             1             = 
    40 r.44                        1             1             = 
    41 r.45                     1001             2               
    42 r.46                    -1001         -1001               
    43 r.47                   2036.4      -969.277               
    44 r.48                     1001             2               
    45 r.49                    -1001         -1001               
    46 r.50                  988.223      -987.786               
    47 r.51                     1000             2               
    48 r.52                    -1000         -1001               
    49 r.53                  2038.05      -950.645               
    50 r.54                        2             2               
    51 r.55                       -2         -1001               
    52 r.56                 -961.951      -981.259               
    53 r.57                     1001             2               
    54 r.58                    -1001         -1001               
    55 r.59                  2002.38      -974.078               
    56 r.60                     1001             2               
    57 r.61                    -1001         -1001               
    58 r.62                  990.323      -985.686               
    59 r.63                     1000             2               
    60 r.64                    -1000         -1001               
    61 r.65                     2000      -975.913               
    62 r.66                        2             2               
    63 r.67                       -2         -1001               
    64 r.68                 -11.7639      -987.773               
    65 r.69                  23.9909      -972.075               
    66 r.70                 -976.009      -988.236               
    67 r.71                  23.9909      -972.075               
    68 r.72                 -976.009      -988.236               
    69 r.73                  57.4061      -940.001               
    70 r.74                 -980.692      -980.692               
    71 r.75                  57.4061      -940.001               
    72 r.76                 -980.692      -980.692               
    73 r.77                     1000             2               
    74 r.78                    -1000         -1001               
    75 r.79                  2057.41      -939.758               
    76 r.80                        2             2               
    77 r.81                       -2         -1001               
    78 r.82                 -942.594      -980.643               
    79 r.83                     1001             2               
    80 r.84                    -1001         -1001               
    81 r.85                  1961.95       27.9252               
    82 r.86                     1001             2               
    83 r.87                    -1001         -1001               
    84 r.88                  3013.28       11.7639               
    85 r.89                     1001             2               
    86 r.90                    -1001         -1001               
    87 r.91                     2000      -950.645               
    88 r.92                     1001             2               
    89 r.93                    -1001         -1001               
    90 r.94                  3051.32      -981.259               
    91 r.95                        2             2               
    92 r.96                       -2         -1001               
    93 r.97                  -35.666      -974.078               
    94 r.98                     1000             2               
    95 r.99                    -1000         -1001               
    96 r.100                  2003.6      -985.686               
    97 r.101                    1001             2               
    98 r.102                   -1001         -1001               
    99 r.103                 1961.95      -975.913               
   100 r.104                    1001             2               
   101 r.105                   -1001         -1001               
   102 r.106                 3001.51      -987.773               
   103 r.107                -939.608      -969.277               
   104 r.108                -987.786      -987.786               
   105 r.109                -939.608      -969.277               
   106 r.110                -987.786      -987.786               
   107 r.111                    1001             2               
   108 r.112                   -1001         -1001               
   109 r.113                 2019.36      -940.001               
   110 r.114                    1001             2               
   111 r.115                   -1001         -1001               
   112 r.116                 3032.58      -980.692               
   113 r.117                 19.3573      -939.758               
   114 r.118                -980.643      -980.643               
   115 r.119                 1070.68      -939.758               
   116 r.120                 70.6822      -980.643               
   117 r.121                    1000             2               
   118 r.122                   -1000         -1001               
   119 r.123                 1961.95       27.9252               
   120 r.124                       2             2               
   121 r.125                      -2         -1001               
   122 r.126                 961.951       11.7639               
   123 r.127                    1001             2               
   124 r.128                   -1001         -1001               
   125 r.129                 1998.35       30.7234               
   126 r.130                    1001             2               
   127 r.131                   -1001         -1001               
   128 r.132                 950.175       12.2143               
   129 r.133                  32.371      -950.645               
   130 r.134                -967.629      -981.259               
   131 r.135                 1050.72      -950.645               
   132 r.136                 50.7244      -981.259               
   133 r.137                    1000             2               
   134 r.138                   -1000         -1001               
   135 r.139                 1961.95      -975.913               
   136 r.140                       2             2               
   137 r.141                      -2         -1001               
   138 r.142                -49.8127      -987.773               
   139 r.143                 62.0397      -950.645               
   140 r.144                 -937.96      -981.259               
   141 r.145                 62.0397      -950.645               
   142 r.146                 -937.96      -981.259               
   143 r.147                    1000             2               
   144 r.148                   -1000         -1001               
   145 r.149                 2019.36      -940.001               
   146 r.150                       2             2               
   147 r.151                      -2         -1001               
   148 r.152                -18.7409      -980.692               
   149 r.153                 19.3573      -939.758               
   150 r.154                -980.643      -980.643               
   151 r.155                 19.3573      -939.758               
   152 r.156                -980.643      -980.643               
   153 r.157                    1001             2               
   154 r.158                   -1001         -1001               
   155 r.159                 1994.32       27.9252               
   156 r.160                    1001             2               
   157 r.161                   -1001         -1001               
   158 r.162                 3012.68       11.7639               
   159 r.163                       2             2               
   160 r.164                      -2         -1001               
   161 r.165                 30.7234       30.7234               
   162 r.166                    1000             2               
   163 r.167                   -1000         -1001               
   164 r.168                  2000.9       12.2143               
   165 r.169                    1001             2               
   166 r.170                   -1001         -1001               
   167 r.171                 1994.32      -975.913               
   168 r.172                    1001             2               
   169 r.173                   -1001         -1001               
   170 r.174                 3000.91      -987.773               
   171 r.175                -973.626      -974.078               
   172 r.176                -985.686      -985.686               
   173 r.177                -973.626      -974.078               
   174 r.178                -985.686      -985.686               
   175 r.179                    1001             2               
   176 r.180                   -1001         -1001               
   177 r.181                 2051.73      -940.001               
   178 r.182                    1001             2               
   179 r.183                   -1001         -1001               
   180 r.184                 3031.98      -980.692               
   181 r.185                 51.7283      -939.758               
   182 r.186                -948.272      -980.643               
   183 r.187                 1070.08      -939.758               
   184 r.188                 70.0817      -980.643               
   185 r.189                    1000             2               
   186 r.190                   -1000         -1001               
   187 r.191                    2000       27.9252               
   188 r.192                       2             2               
   189 r.193                      -2         -1001               
   190 r.194                 11.7639       11.7639               
   191 r.195                    1001             2               
   192 r.196                   -1001         -1001               
   193 r.197                  2036.4       30.7234               
   194 r.198                    1001             2               
   195 r.199                   -1001         -1001               
   196 r.200                 999.987       12.2143               
   197 r.201                    1000             2               
   198 r.202                   -1000         -1001               
   199 r.203                 2038.05       49.3553               
   200 r.204                       2             2               
   201 r.205                      -2         -1001               
   202 r.206                 49.8127       18.7409               
   203 r.207                    1001             2               
   204 r.208                   -1001         -1001               
   205 r.209                 2002.38       25.9222               
   206 r.210                    1001             2               
   207 r.211                   -1001         -1001               
   208 r.212                 1002.09       14.3142               
   209 r.213                 23.9909      -975.913               
   210 r.214                -987.773      -987.773               
   211 r.215                 23.9909      -975.913               
   212 r.216                -987.773      -987.773               
   213 r.217                 57.4061      -940.001               
   214 r.218                -980.692      -980.692               
   215 r.219                   69.17      -940.001               
   216 r.220                -968.928      -980.692               
   217 r.221                 57.4061      -939.758               
   218 r.222                -942.594      -980.643               
   219 r.223                   69.17      -939.758               
   220 r.224                 -930.83      -980.643               
   221 r.225                    1001             2               
   222 r.226                   -1001         -1001               
   223 r.227                    1979       30.7234               
   224 r.228                    1001             2               
   225 r.229                   -1001         -1001               
   226 r.230                 968.915       12.2143               
   227 r.231                    1000             2               
   228 r.232                   -1000         -1001               
   229 r.233                 1980.64       49.3553               
   230 r.234                       2             2               
   231 r.235                      -2         -1001               
   232 r.236                 18.7409       18.7409               
   233 r.237                    1001             2               
   234 r.238                   -1001         -1001               
   235 r.239                 1944.98       25.9222               
   236 r.240                    1001             2               
   237 r.241                   -1001         -1001               
   238 r.242                 971.015       14.3142               
   239 r.243                    1000             2               
   240 r.244                   -1000         -1001               
   241 r.245                    2000      -939.758               
   242 r.246                       2             2               
   243 r.247                      -2         -1001               
   244 r.248                -961.902      -980.643               
   245 r.249                    1000             2               
   246 r.250                   -1000         -1001               
   247 r.251                 1942.59       27.9252               
   248 r.252                       2             2               
   249 r.253                      -2         -1001               
   250 r.254                 942.594       11.7639               
   251 r.255                    1000             2               
   252 r.256                   -1000         -1001               
   253 r.257                    2000       59.9986               
   254 r.258                       2             2               
   255 r.259                      -2         -1001               
   256 r.260                 961.902       19.3079               

   No. Column name       Activity     Lower bound   Upper bound
------ ------------    ------------- ------------- -------------
     1 tt                    87.5305             0               
     2 s_1_1        *              0             0             1 
     3 t_1_1                 57.4061             0               
     4 s_1_7        *              0             0             1 
     5 s_2_1        *              1             0             1 
     6 t_2_1                 57.4061             0               
     7 s_2_7        *              1             0             1 
     8 s_1_2        *              1             0             1 
     9 t_1_2                 19.3573             0               
    10 s_1_8        *              0             0             1 
    11 s_2_2        *              0             0             1 
    12 t_2_2                 1070.68             0               
    13 s_2_8        *              1             0             1 
    14 s_1_3        *              0             0             1 
    15 t_1_3                 19.3573             0               
    16 s_2_3        *              1             0             1 
    17 t_2_3                 19.3573             0               
    18 s_1_4        *              1             0             1 
    19 t_1_4                 51.7283             0               
    20 s_2_4        *              0             0             1 
    21 t_2_4                 1070.08             0               
    22 s_1_5        *              0             0             1 
    23 t_1_5                 57.4061             0               
    24 s_2_5        *              1             0             1 
    25 t_2_5                   69.17             0               
    26 s_1_6        *              1             0             1 
    27 t_1_6                  81.397             0               
    28 s_2_6        *              0             0             1 
    29 t_2_6                  81.397             0               
    30 t_1_7                       0             0               
    31 t_2_7                 38.0982             0               
    32 t_1_8                       0             0               
    33 t_2_8                       0             0               
    34 r_1_1_2      *              1             0             1 
    35 u_1_1_2      *              0             0             1 
    36 r_2_1_2      *              1             0             1 
    37 u_2_1_2      *              0             0             1 
    38 r_1_1_3      *              1             0             1 
    39 u_1_1_3      *              0             0             1 
    40 r_2_1_3      *              0             0             1 
    41 u_2_1_3      *              1             0             1 
    42 r_1_1_4      *              1             0             1 
    43 u_1_1_4      *              0             0             1 
    44 r_2_1_4      *              1             0             1 
    45 u_2_1_4      *              0             0             1 
    46 r_1_1_5      *              1             0             1 
    47 u_1_1_5      *              0             0             1 
    48 r_2_1_5      *              0             0             1 
    49 u_2_1_5      *              0             0             1 
    50 r_1_1_8      *              1             0             1 
    51 u_1_1_8      *              0             0             1 
    52 r_2_1_8      *              0             0             1 
    53 u_2_1_8      *              1             0             1 
    54 r_1_2_3      *              1             0             1 
    55 u_1_2_3      *              0             0             1 
    56 r_2_2_3      *              1             0             1 
    57 u_2_2_3      *              0             0             1 
    58 r_1_2_4      *              0             0             1 
    59 u_1_2_4      *              0             0             1 
    60 r_2_2_4      *              1             0             1 
    61 u_2_2_4      *              0             0             1 
    62 r_1_2_5      *              1             0             1 
    63 u_1_2_5      *              0             0             1 
    64 r_2_2_5      *              1             0             1 
    65 u_2_2_5      *              0             0             1 
    66 r_1_2_7      *              1             0             1 
    67 u_1_2_7      *              0             0             1 
    68 r_2_2_7      *              1             0             1 
    69 u_2_2_7      *              0             0             1 
    70 r_1_3_5      *              1             0             1 
    71 u_1_3_5      *              0             0             1 
    72 r_2_3_5      *              0             0             1 
    73 u_2_3_5      *              0             0             1 
    74 r_1_3_7      *              1             0             1 
    75 u_1_3_7      *              0             0             1 
    76 r_2_3_7      *              0             0             1 
    77 u_2_3_7      *              0             0             1 
    78 r_1_4_5      *              1             0             1 
    79 u_1_4_5      *              0             0             1 
    80 r_2_4_5      *              1             0             1 
    81 u_2_4_5      *              0             0             1 
    82 r_1_4_7      *              1             0             1 
    83 u_1_4_7      *              0             0             1 
    84 r_2_4_7      *              1             0             1 
    85 u_2_4_7      *              0             0             1 
    86 r_1_7_8      *              1             0             1 
    87 u_1_7_8      *              0             0             1 
    88 r_2_7_8      *              0             0             1 
    89 u_2_7_8      *              1             0             1 

Integer feasibility conditions:

KKT.PE: max.abs.err = 4.55e-13 on row 102
        max.rel.err = 1.11e-16 on row 155
        High quality

KKT.PB: max.abs.err = 1.14e-13 on row 172
        max.rel.err = 1.12e-15 on row 161
        High quality

End of output
